; benchmark generated from python API
(set-info :status unknown)
(declare-fun cell_1_7 () Int)
(declare-fun cell_2_4 () Int)
(declare-fun cell_3_2 () Int)
(declare-fun cell_4_8 () Int)
(declare-fun cell_5_3 () Int)
(declare-fun cell_6_6 () Int)
(declare-fun cell_7_5 () Int)
(declare-fun cell_1_1 () Int)
(declare-fun cell_2_1 () Int)
(declare-fun cell_3_1 () Int)
(declare-fun cell_4_1 () Int)
(declare-fun cell_5_1 () Int)
(declare-fun cell_6_1 () Int)
(declare-fun cell_7_1 () Int)
(declare-fun cell_8_1 () Int)
(declare-fun cell_9_1 () Int)
(declare-fun cell_1_2 () Int)
(declare-fun cell_2_2 () Int)
(declare-fun cell_4_2 () Int)
(declare-fun cell_5_2 () Int)
(declare-fun cell_6_2 () Int)
(declare-fun cell_7_2 () Int)
(declare-fun cell_8_2 () Int)
(declare-fun cell_9_2 () Int)
(declare-fun cell_1_3 () Int)
(declare-fun cell_2_3 () Int)
(declare-fun cell_3_3 () Int)
(declare-fun cell_4_3 () Int)
(declare-fun cell_6_3 () Int)
(declare-fun cell_7_3 () Int)
(declare-fun cell_8_3 () Int)
(declare-fun cell_9_3 () Int)
(declare-fun cell_1_4 () Int)
(declare-fun cell_3_4 () Int)
(declare-fun cell_4_4 () Int)
(declare-fun cell_5_4 () Int)
(declare-fun cell_6_4 () Int)
(declare-fun cell_7_4 () Int)
(declare-fun cell_8_4 () Int)
(declare-fun cell_9_4 () Int)
(declare-fun cell_1_5 () Int)
(declare-fun cell_2_5 () Int)
(declare-fun cell_3_5 () Int)
(declare-fun cell_4_5 () Int)
(declare-fun cell_5_5 () Int)
(declare-fun cell_6_5 () Int)
(declare-fun cell_8_5 () Int)
(declare-fun cell_9_5 () Int)
(declare-fun cell_1_6 () Int)
(declare-fun cell_2_6 () Int)
(declare-fun cell_3_6 () Int)
(declare-fun cell_4_6 () Int)
(declare-fun cell_5_6 () Int)
(declare-fun cell_7_6 () Int)
(declare-fun cell_8_6 () Int)
(declare-fun cell_9_6 () Int)
(declare-fun cell_2_7 () Int)
(declare-fun cell_3_7 () Int)
(declare-fun cell_4_7 () Int)
(declare-fun cell_5_7 () Int)
(declare-fun cell_6_7 () Int)
(declare-fun cell_7_7 () Int)
(declare-fun cell_8_7 () Int)
(declare-fun cell_9_7 () Int)
(declare-fun cell_1_8 () Int)
(declare-fun cell_2_8 () Int)
(declare-fun cell_3_8 () Int)
(declare-fun cell_5_8 () Int)
(declare-fun cell_6_8 () Int)
(declare-fun cell_7_8 () Int)
(declare-fun cell_8_8 () Int)
(declare-fun cell_9_8 () Int)
(declare-fun cell_1_9 () Int)
(declare-fun cell_2_9 () Int)
(declare-fun cell_3_9 () Int)
(declare-fun cell_4_9 () Int)
(declare-fun cell_5_9 () Int)
(declare-fun cell_6_9 () Int)
(declare-fun cell_7_9 () Int)
(declare-fun cell_8_9 () Int)
(declare-fun cell_9_9 () Int)
(assert
 (= cell_1_7 1))
(assert
 (= cell_2_4 1))
(assert
 (= cell_3_2 1))
(assert
 (= cell_4_8 1))
(assert
 (= cell_5_3 1))
(assert
 (= cell_6_6 1))
(assert
 (= cell_7_5 1))
(assert
 (let (($x7573 (= cell_1_1 9)))
 (let (($x5189 (= cell_1_1 8)))
 (let (($x9749 (= cell_1_1 7)))
 (let (($x2973 (= cell_1_1 6)))
 (let (($x3823 (= cell_1_1 5)))
 (let (($x6973 (= cell_1_1 4)))
 (let (($x8069 (= cell_1_1 3)))
 (let (($x1908 (= cell_1_1 2)))
 (let (($x7943 (= cell_1_1 1)))
 (or $x7943 $x1908 $x8069 $x6973 $x3823 $x2973 $x9749 $x5189 $x7573)))))))))))
(assert
 (let (($x4429 (= cell_2_1 9)))
 (let (($x4527 (= cell_2_1 8)))
 (let (($x9865 (= cell_2_1 7)))
 (let (($x3757 (= cell_2_1 6)))
 (let (($x8676 (= cell_2_1 5)))
 (let (($x2230 (= cell_2_1 4)))
 (let (($x582 (= cell_2_1 3)))
 (let (($x5221 (= cell_2_1 2)))
 (let (($x7541 (= cell_2_1 1)))
 (or $x7541 $x5221 $x582 $x2230 $x8676 $x3757 $x9865 $x4527 $x4429)))))))))))
(assert
 (let (($x7048 (= cell_3_1 9)))
 (let (($x5585 (= cell_3_1 8)))
 (let (($x9835 (= cell_3_1 7)))
 (let (($x7967 (= cell_3_1 6)))
 (let (($x4424 (= cell_3_1 5)))
 (let (($x7129 (= cell_3_1 4)))
 (let (($x7485 (= cell_3_1 3)))
 (let (($x7063 (= cell_3_1 2)))
 (let (($x1806 (= cell_3_1 1)))
 (or $x1806 $x7063 $x7485 $x7129 $x4424 $x7967 $x9835 $x5585 $x7048)))))))))))
(assert
 (let (($x5802 (= cell_4_1 9)))
 (let (($x5289 (= cell_4_1 8)))
 (let (($x3051 (= cell_4_1 7)))
 (let (($x6898 (= cell_4_1 6)))
 (let (($x340 (= cell_4_1 5)))
 (let (($x3306 (= cell_4_1 4)))
 (let (($x6390 (= cell_4_1 3)))
 (let (($x5169 (= cell_4_1 2)))
 (let (($x2063 (= cell_4_1 1)))
 (or $x2063 $x5169 $x6390 $x3306 $x340 $x6898 $x3051 $x5289 $x5802)))))))))))
(assert
 (let (($x2825 (= cell_5_1 9)))
 (let (($x4157 (= cell_5_1 8)))
 (let (($x6561 (= cell_5_1 7)))
 (let (($x9815 (= cell_5_1 6)))
 (let (($x5765 (= cell_5_1 5)))
 (let (($x6326 (= cell_5_1 4)))
 (let (($x41 (= cell_5_1 3)))
 (let (($x3576 (= cell_5_1 2)))
 (let (($x9466 (= cell_5_1 1)))
 (or $x9466 $x3576 $x41 $x6326 $x5765 $x9815 $x6561 $x4157 $x2825)))))))))))
(assert
 (let (($x9231 (= cell_6_1 9)))
 (let (($x7481 (= cell_6_1 8)))
 (let (($x1107 (= cell_6_1 7)))
 (let (($x2544 (= cell_6_1 6)))
 (let (($x9902 (= cell_6_1 5)))
 (let (($x5749 (= cell_6_1 4)))
 (let (($x188 (= cell_6_1 3)))
 (let (($x3585 (= cell_6_1 2)))
 (let (($x8336 (= cell_6_1 1)))
 (or $x8336 $x3585 $x188 $x5749 $x9902 $x2544 $x1107 $x7481 $x9231)))))))))))
(assert
 (let (($x3257 (= cell_7_1 9)))
 (let (($x8179 (= cell_7_1 8)))
 (let (($x6851 (= cell_7_1 7)))
 (let (($x3847 (= cell_7_1 6)))
 (let (($x4598 (= cell_7_1 5)))
 (let (($x5706 (= cell_7_1 4)))
 (let (($x7325 (= cell_7_1 3)))
 (let (($x809 (= cell_7_1 2)))
 (let (($x3039 (= cell_7_1 1)))
 (or $x3039 $x809 $x7325 $x5706 $x4598 $x3847 $x6851 $x8179 $x3257)))))))))))
(assert
 (or (= cell_8_1 1) (= cell_8_1 2) (= cell_8_1 3) (= cell_8_1 4) (= cell_8_1 5) (= cell_8_1 6) (= cell_8_1 7) (= cell_8_1 8) (= cell_8_1 9)))
(assert
 (or (= cell_9_1 1) (= cell_9_1 2) (= cell_9_1 3) (= cell_9_1 4) (= cell_9_1 5) (= cell_9_1 6) (= cell_9_1 7) (= cell_9_1 8) (= cell_9_1 9)))
(assert
 (let (($x6668 (= cell_1_2 9)))
 (let (($x4147 (= cell_1_2 8)))
 (let (($x3580 (= cell_1_2 7)))
 (let (($x822 (= cell_1_2 6)))
 (let (($x1495 (= cell_1_2 5)))
 (let (($x3393 (= cell_1_2 4)))
 (let (($x84 (= cell_1_2 3)))
 (let (($x4632 (= cell_1_2 2)))
 (let (($x3189 (= cell_1_2 1)))
 (or $x3189 $x4632 $x84 $x3393 $x1495 $x822 $x3580 $x4147 $x6668)))))))))))
(assert
 (let (($x1706 (= cell_2_2 9)))
 (let (($x4258 (= cell_2_2 8)))
 (let (($x2022 (= cell_2_2 7)))
 (let (($x9948 (= cell_2_2 6)))
 (let (($x4836 (= cell_2_2 5)))
 (let (($x3270 (= cell_2_2 4)))
 (let (($x3086 (= cell_2_2 3)))
 (let (($x6002 (= cell_2_2 2)))
 (let (($x9576 (= cell_2_2 1)))
 (or $x9576 $x6002 $x3086 $x3270 $x4836 $x9948 $x2022 $x4258 $x1706)))))))))))
(assert
 (let (($x5826 (= cell_3_2 1)))
 (or $x5826 (= cell_3_2 2) (= cell_3_2 3) (= cell_3_2 4) (= cell_3_2 5) (= cell_3_2 6) (= cell_3_2 7) (= cell_3_2 8) (= cell_3_2 9))))
(assert
 (let (($x4531 (= cell_4_2 9)))
 (let (($x6117 (= cell_4_2 8)))
 (let (($x4210 (= cell_4_2 7)))
 (let (($x3698 (= cell_4_2 6)))
 (let (($x5730 (= cell_4_2 5)))
 (let (($x6330 (= cell_4_2 4)))
 (let (($x4223 (= cell_4_2 3)))
 (let (($x1175 (= cell_4_2 2)))
 (let (($x177 (= cell_4_2 1)))
 (or $x177 $x1175 $x4223 $x6330 $x5730 $x3698 $x4210 $x6117 $x4531)))))))))))
(assert
 (let (($x8888 (= cell_5_2 9)))
 (let (($x7806 (= cell_5_2 8)))
 (let (($x7845 (= cell_5_2 7)))
 (let (($x1395 (= cell_5_2 6)))
 (let (($x7761 (= cell_5_2 5)))
 (let (($x2636 (= cell_5_2 4)))
 (let (($x5510 (= cell_5_2 3)))
 (let (($x8381 (= cell_5_2 2)))
 (let (($x4448 (= cell_5_2 1)))
 (or $x4448 $x8381 $x5510 $x2636 $x7761 $x1395 $x7845 $x7806 $x8888)))))))))))
(assert
 (let (($x7366 (= cell_6_2 9)))
 (let (($x6151 (= cell_6_2 8)))
 (let (($x3525 (= cell_6_2 7)))
 (let (($x9324 (= cell_6_2 6)))
 (let (($x1367 (= cell_6_2 5)))
 (let (($x4593 (= cell_6_2 4)))
 (let (($x673 (= cell_6_2 3)))
 (let (($x1338 (= cell_6_2 2)))
 (let (($x2477 (= cell_6_2 1)))
 (or $x2477 $x1338 $x673 $x4593 $x1367 $x9324 $x3525 $x6151 $x7366)))))))))))
(assert
 (let (($x5042 (= cell_7_2 9)))
 (let (($x3176 (= cell_7_2 8)))
 (let (($x3789 (= cell_7_2 7)))
 (let (($x8190 (= cell_7_2 6)))
 (let (($x8979 (= cell_7_2 5)))
 (let (($x995 (= cell_7_2 4)))
 (let (($x7348 (= cell_7_2 3)))
 (let (($x2381 (= cell_7_2 2)))
 (let (($x2982 (= cell_7_2 1)))
 (or $x2982 $x2381 $x7348 $x995 $x8979 $x8190 $x3789 $x3176 $x5042)))))))))))
(assert
 (let (($x7470 (= cell_8_2 1)))
 (or $x7470 (= cell_8_2 2) (= cell_8_2 3) (= cell_8_2 4) (= cell_8_2 5) (= cell_8_2 6) (= cell_8_2 7) (= cell_8_2 8) (= cell_8_2 9))))
(assert
 (let (($x9809 (= cell_9_2 1)))
 (or $x9809 (= cell_9_2 2) (= cell_9_2 3) (= cell_9_2 4) (= cell_9_2 5) (= cell_9_2 6) (= cell_9_2 7) (= cell_9_2 8) (= cell_9_2 9))))
(assert
 (let (($x3549 (= cell_1_3 9)))
 (let (($x8551 (= cell_1_3 8)))
 (let (($x4792 (= cell_1_3 7)))
 (let (($x4812 (= cell_1_3 6)))
 (let (($x3967 (= cell_1_3 5)))
 (let (($x1176 (= cell_1_3 4)))
 (let (($x742 (= cell_1_3 3)))
 (let (($x3821 (= cell_1_3 2)))
 (let (($x8313 (= cell_1_3 1)))
 (or $x8313 $x3821 $x742 $x1176 $x3967 $x4812 $x4792 $x8551 $x3549)))))))))))
(assert
 (let (($x9672 (= cell_2_3 9)))
 (let (($x3984 (= cell_2_3 8)))
 (let (($x1427 (= cell_2_3 7)))
 (let (($x1720 (= cell_2_3 6)))
 (let (($x4833 (= cell_2_3 5)))
 (let (($x6894 (= cell_2_3 4)))
 (let (($x713 (= cell_2_3 3)))
 (let (($x4301 (= cell_2_3 2)))
 (let (($x2043 (= cell_2_3 1)))
 (or $x2043 $x4301 $x713 $x6894 $x4833 $x1720 $x1427 $x3984 $x9672)))))))))))
(assert
 (let (($x8938 (= cell_3_3 9)))
 (let (($x5217 (= cell_3_3 8)))
 (let (($x2806 (= cell_3_3 7)))
 (let (($x440 (= cell_3_3 6)))
 (let (($x876 (= cell_3_3 5)))
 (let (($x5606 (= cell_3_3 4)))
 (let (($x522 (= cell_3_3 3)))
 (let (($x790 (= cell_3_3 2)))
 (let (($x4861 (= cell_3_3 1)))
 (or $x4861 $x790 $x522 $x5606 $x876 $x440 $x2806 $x5217 $x8938)))))))))))
(assert
 (let (($x4112 (= cell_4_3 9)))
 (let (($x1784 (= cell_4_3 8)))
 (let (($x3181 (= cell_4_3 7)))
 (let (($x10096 (= cell_4_3 6)))
 (let (($x1043 (= cell_4_3 5)))
 (let (($x3716 (= cell_4_3 4)))
 (let (($x4939 (= cell_4_3 3)))
 (let (($x6990 (= cell_4_3 2)))
 (let (($x8905 (= cell_4_3 1)))
 (or $x8905 $x6990 $x4939 $x3716 $x1043 $x10096 $x3181 $x1784 $x4112)))))))))))
(assert
 (let (($x5631 (= cell_5_3 1)))
 (or $x5631 (= cell_5_3 2) (= cell_5_3 3) (= cell_5_3 4) (= cell_5_3 5) (= cell_5_3 6) (= cell_5_3 7) (= cell_5_3 8) (= cell_5_3 9))))
(assert
 (let (($x6452 (= cell_6_3 9)))
 (let (($x2709 (= cell_6_3 8)))
 (let (($x7908 (= cell_6_3 7)))
 (let (($x6856 (= cell_6_3 6)))
 (let (($x6724 (= cell_6_3 5)))
 (let (($x5889 (= cell_6_3 4)))
 (let (($x6651 (= cell_6_3 3)))
 (let (($x7753 (= cell_6_3 2)))
 (let (($x5924 (= cell_6_3 1)))
 (or $x5924 $x7753 $x6651 $x5889 $x6724 $x6856 $x7908 $x2709 $x6452)))))))))))
(assert
 (let (($x5170 (= cell_7_3 9)))
 (let (($x3297 (= cell_7_3 8)))
 (let (($x2816 (= cell_7_3 7)))
 (let (($x4124 (= cell_7_3 6)))
 (let (($x5552 (= cell_7_3 5)))
 (let (($x8167 (= cell_7_3 4)))
 (let (($x1293 (= cell_7_3 3)))
 (let (($x2698 (= cell_7_3 2)))
 (let (($x4898 (= cell_7_3 1)))
 (or $x4898 $x2698 $x1293 $x8167 $x5552 $x4124 $x2816 $x3297 $x5170)))))))))))
(assert
 (let (($x3923 (= cell_8_3 1)))
 (or $x3923 (= cell_8_3 2) (= cell_8_3 3) (= cell_8_3 4) (= cell_8_3 5) (= cell_8_3 6) (= cell_8_3 7) (= cell_8_3 8) (= cell_8_3 9))))
(assert
 (let (($x8913 (= cell_9_3 1)))
 (or $x8913 (= cell_9_3 2) (= cell_9_3 3) (= cell_9_3 4) (= cell_9_3 5) (= cell_9_3 6) (= cell_9_3 7) (= cell_9_3 8) (= cell_9_3 9))))
(assert
 (let (($x9013 (= cell_1_4 9)))
 (let (($x423 (= cell_1_4 8)))
 (let (($x1608 (= cell_1_4 7)))
 (let (($x2779 (= cell_1_4 6)))
 (let (($x7059 (= cell_1_4 5)))
 (let (($x2893 (= cell_1_4 4)))
 (let (($x4377 (= cell_1_4 3)))
 (let (($x3959 (= cell_1_4 2)))
 (let (($x9328 (= cell_1_4 1)))
 (or $x9328 $x3959 $x4377 $x2893 $x7059 $x2779 $x1608 $x423 $x9013)))))))))))
(assert
 (let (($x9475 (= cell_2_4 1)))
 (or $x9475 (= cell_2_4 2) (= cell_2_4 3) (= cell_2_4 4) (= cell_2_4 5) (= cell_2_4 6) (= cell_2_4 7) (= cell_2_4 8) (= cell_2_4 9))))
(assert
 (let (($x6498 (= cell_3_4 1)))
 (or $x6498 (= cell_3_4 2) (= cell_3_4 3) (= cell_3_4 4) (= cell_3_4 5) (= cell_3_4 6) (= cell_3_4 7) (= cell_3_4 8) (= cell_3_4 9))))
(assert
 (let (($x9821 (= cell_4_4 9)))
 (let (($x3217 (= cell_4_4 8)))
 (let (($x738 (= cell_4_4 7)))
 (let (($x7678 (= cell_4_4 6)))
 (let (($x7307 (= cell_4_4 5)))
 (let (($x4525 (= cell_4_4 4)))
 (let (($x5877 (= cell_4_4 3)))
 (let (($x9372 (= cell_4_4 2)))
 (let (($x7853 (= cell_4_4 1)))
 (or $x7853 $x9372 $x5877 $x4525 $x7307 $x7678 $x738 $x3217 $x9821)))))))))))
(assert
 (let (($x7553 (= cell_5_4 9)))
 (let (($x8574 (= cell_5_4 8)))
 (let (($x3897 (= cell_5_4 7)))
 (let (($x4355 (= cell_5_4 6)))
 (let (($x421 (= cell_5_4 5)))
 (let (($x2431 (= cell_5_4 4)))
 (let (($x7992 (= cell_5_4 3)))
 (let (($x3970 (= cell_5_4 2)))
 (let (($x5483 (= cell_5_4 1)))
 (or $x5483 $x3970 $x7992 $x2431 $x421 $x4355 $x3897 $x8574 $x7553)))))))))))
(assert
 (let (($x1235 (= cell_6_4 9)))
 (let (($x6603 (= cell_6_4 8)))
 (let (($x16 (= cell_6_4 7)))
 (let (($x5048 (= cell_6_4 6)))
 (let (($x7542 (= cell_6_4 5)))
 (let (($x1257 (= cell_6_4 4)))
 (let (($x3244 (= cell_6_4 3)))
 (let (($x2457 (= cell_6_4 2)))
 (let (($x5599 (= cell_6_4 1)))
 (or $x5599 $x2457 $x3244 $x1257 $x7542 $x5048 $x16 $x6603 $x1235)))))))))))
(assert
 (let (($x7881 (= cell_7_4 9)))
 (let (($x10126 (= cell_7_4 8)))
 (let (($x9206 (= cell_7_4 7)))
 (let (($x21 (= cell_7_4 6)))
 (let (($x6840 (= cell_7_4 5)))
 (let (($x8244 (= cell_7_4 4)))
 (let (($x7567 (= cell_7_4 3)))
 (let (($x8161 (= cell_7_4 2)))
 (let (($x3800 (= cell_7_4 1)))
 (or $x3800 $x8161 $x7567 $x8244 $x6840 $x21 $x9206 $x10126 $x7881)))))))))))
(assert
 (let (($x10055 (= cell_8_4 1)))
 (or $x10055 (= cell_8_4 2) (= cell_8_4 3) (= cell_8_4 4) (= cell_8_4 5) (= cell_8_4 6) (= cell_8_4 7) (= cell_8_4 8) (= cell_8_4 9))))
(assert
 (let (($x2364 (= cell_9_4 1)))
 (or $x2364 (= cell_9_4 2) (= cell_9_4 3) (= cell_9_4 4) (= cell_9_4 5) (= cell_9_4 6) (= cell_9_4 7) (= cell_9_4 8) (= cell_9_4 9))))
(assert
 (let (($x5769 (= cell_1_5 9)))
 (let (($x7296 (= cell_1_5 8)))
 (let (($x2351 (= cell_1_5 7)))
 (let (($x9004 (= cell_1_5 6)))
 (let (($x6142 (= cell_1_5 5)))
 (let (($x8141 (= cell_1_5 4)))
 (let (($x2402 (= cell_1_5 3)))
 (let (($x3399 (= cell_1_5 2)))
 (let (($x1627 (= cell_1_5 1)))
 (or $x1627 $x3399 $x2402 $x8141 $x6142 $x9004 $x2351 $x7296 $x5769)))))))))))
(assert
 (let (($x79 (= cell_2_5 9)))
 (let (($x10217 (= cell_2_5 8)))
 (let (($x2860 (= cell_2_5 7)))
 (let (($x2649 (= cell_2_5 6)))
 (let (($x6912 (= cell_2_5 5)))
 (let (($x3989 (= cell_2_5 4)))
 (let (($x1125 (= cell_2_5 3)))
 (let (($x8487 (= cell_2_5 2)))
 (let (($x9323 (= cell_2_5 1)))
 (or $x9323 $x8487 $x1125 $x3989 $x6912 $x2649 $x2860 $x10217 $x79)))))))))))
(assert
 (let (($x5422 (= cell_3_5 9)))
 (let (($x2847 (= cell_3_5 8)))
 (let (($x3872 (= cell_3_5 7)))
 (let (($x3324 (= cell_3_5 6)))
 (let (($x8627 (= cell_3_5 5)))
 (let (($x4892 (= cell_3_5 4)))
 (let (($x7837 (= cell_3_5 3)))
 (let (($x9623 (= cell_3_5 2)))
 (let (($x2956 (= cell_3_5 1)))
 (or $x2956 $x9623 $x7837 $x4892 $x8627 $x3324 $x3872 $x2847 $x5422)))))))))))
(assert
 (let (($x2718 (= cell_4_5 9)))
 (let (($x7532 (= cell_4_5 8)))
 (let (($x8662 (= cell_4_5 7)))
 (let (($x5065 (= cell_4_5 6)))
 (let (($x1579 (= cell_4_5 5)))
 (let (($x9717 (= cell_4_5 4)))
 (let (($x2535 (= cell_4_5 3)))
 (let (($x4752 (= cell_4_5 2)))
 (let (($x9431 (= cell_4_5 1)))
 (or $x9431 $x4752 $x2535 $x9717 $x1579 $x5065 $x8662 $x7532 $x2718)))))))))))
(assert
 (let (($x2979 (= cell_5_5 9)))
 (let (($x6616 (= cell_5_5 8)))
 (let (($x3154 (= cell_5_5 7)))
 (let (($x7314 (= cell_5_5 6)))
 (let (($x8374 (= cell_5_5 5)))
 (let (($x4955 (= cell_5_5 4)))
 (let (($x9682 (= cell_5_5 3)))
 (let (($x1152 (= cell_5_5 2)))
 (let (($x5627 (= cell_5_5 1)))
 (or $x5627 $x1152 $x9682 $x4955 $x8374 $x7314 $x3154 $x6616 $x2979)))))))))))
(assert
 (let (($x5377 (= cell_6_5 9)))
 (let (($x10116 (= cell_6_5 8)))
 (let (($x2442 (= cell_6_5 7)))
 (let (($x1787 (= cell_6_5 6)))
 (let (($x6371 (= cell_6_5 5)))
 (let (($x2736 (= cell_6_5 4)))
 (let (($x6363 (= cell_6_5 3)))
 (let (($x9732 (= cell_6_5 2)))
 (let (($x5171 (= cell_6_5 1)))
 (or $x5171 $x9732 $x6363 $x2736 $x6371 $x1787 $x2442 $x10116 $x5377)))))))))))
(assert
 (let (($x2815 (= cell_7_5 1)))
 (or $x2815 (= cell_7_5 2) (= cell_7_5 3) (= cell_7_5 4) (= cell_7_5 5) (= cell_7_5 6) (= cell_7_5 7) (= cell_7_5 8) (= cell_7_5 9))))
(assert
 (let (($x8230 (= cell_8_5 1)))
 (or $x8230 (= cell_8_5 2) (= cell_8_5 3) (= cell_8_5 4) (= cell_8_5 5) (= cell_8_5 6) (= cell_8_5 7) (= cell_8_5 8) (= cell_8_5 9))))
(assert
 (let (($x10208 (= cell_9_5 1)))
 (or $x10208 (= cell_9_5 2) (= cell_9_5 3) (= cell_9_5 4) (= cell_9_5 5) (= cell_9_5 6) (= cell_9_5 7) (= cell_9_5 8) (= cell_9_5 9))))
(assert
 (let (($x7915 (= cell_1_6 9)))
 (let (($x2627 (= cell_1_6 8)))
 (let (($x7420 (= cell_1_6 7)))
 (let (($x4304 (= cell_1_6 6)))
 (let (($x3355 (= cell_1_6 5)))
 (let (($x6126 (= cell_1_6 4)))
 (let (($x672 (= cell_1_6 3)))
 (let (($x3412 (= cell_1_6 2)))
 (let (($x1622 (= cell_1_6 1)))
 (or $x1622 $x3412 $x672 $x6126 $x3355 $x4304 $x7420 $x2627 $x7915)))))))))))
(assert
 (let (($x9195 (= cell_2_6 9)))
 (let (($x8113 (= cell_2_6 8)))
 (let (($x1088 (= cell_2_6 7)))
 (let (($x1689 (= cell_2_6 6)))
 (let (($x4320 (= cell_2_6 5)))
 (let (($x5033 (= cell_2_6 4)))
 (let (($x726 (= cell_2_6 3)))
 (let (($x4311 (= cell_2_6 2)))
 (let (($x4813 (= cell_2_6 1)))
 (or $x4813 $x4311 $x726 $x5033 $x4320 $x1689 $x1088 $x8113 $x9195)))))))))))
(assert
 (let (($x6177 (= cell_3_6 9)))
 (let (($x5955 (= cell_3_6 8)))
 (let (($x8808 (= cell_3_6 7)))
 (let (($x1893 (= cell_3_6 6)))
 (let (($x4251 (= cell_3_6 5)))
 (let (($x9631 (= cell_3_6 4)))
 (let (($x9493 (= cell_3_6 3)))
 (let (($x1675 (= cell_3_6 2)))
 (let (($x2785 (= cell_3_6 1)))
 (or $x2785 $x1675 $x9493 $x9631 $x4251 $x1893 $x8808 $x5955 $x6177)))))))))))
(assert
 (let (($x9911 (= cell_4_6 9)))
 (let (($x8501 (= cell_4_6 8)))
 (let (($x9434 (= cell_4_6 7)))
 (let (($x1861 (= cell_4_6 6)))
 (let (($x7430 (= cell_4_6 5)))
 (let (($x8273 (= cell_4_6 4)))
 (let (($x5372 (= cell_4_6 3)))
 (let (($x5007 (= cell_4_6 2)))
 (let (($x7637 (= cell_4_6 1)))
 (or $x7637 $x5007 $x5372 $x8273 $x7430 $x1861 $x9434 $x8501 $x9911)))))))))))
(assert
 (let (($x6582 (= cell_5_6 9)))
 (let (($x9262 (= cell_5_6 8)))
 (let (($x6513 (= cell_5_6 7)))
 (let (($x5998 (= cell_5_6 6)))
 (let (($x5909 (= cell_5_6 5)))
 (let (($x960 (= cell_5_6 4)))
 (let (($x3070 (= cell_5_6 3)))
 (let (($x5418 (= cell_5_6 2)))
 (let (($x6304 (= cell_5_6 1)))
 (or $x6304 $x5418 $x3070 $x960 $x5909 $x5998 $x6513 $x9262 $x6582)))))))))))
(assert
 (let (($x2127 (= cell_6_6 1)))
 (or $x2127 (= cell_6_6 2) (= cell_6_6 3) (= cell_6_6 4) (= cell_6_6 5) (= cell_6_6 6) (= cell_6_6 7) (= cell_6_6 8) (= cell_6_6 9))))
(assert
 (let (($x178 (= cell_7_6 1)))
 (or $x178 (= cell_7_6 2) (= cell_7_6 3) (= cell_7_6 4) (= cell_7_6 5) (= cell_7_6 6) (= cell_7_6 7) (= cell_7_6 8) (= cell_7_6 9))))
(assert
 (let (($x6281 (= cell_8_6 1)))
 (or $x6281 (= cell_8_6 2) (= cell_8_6 3) (= cell_8_6 4) (= cell_8_6 5) (= cell_8_6 6) (= cell_8_6 7) (= cell_8_6 8) (= cell_8_6 9))))
(assert
 (let (($x10335 (= cell_9_6 1)))
 (or $x10335 (= cell_9_6 2) (= cell_9_6 3) (= cell_9_6 4) (= cell_9_6 5) (= cell_9_6 6) (= cell_9_6 7) (= cell_9_6 8) (= cell_9_6 9))))
(assert
 (let (($x5797 (= cell_1_7 1)))
 (or $x5797 (= cell_1_7 2) (= cell_1_7 3) (= cell_1_7 4) (= cell_1_7 5) (= cell_1_7 6) (= cell_1_7 7) (= cell_1_7 8) (= cell_1_7 9))))
(assert
 (let (($x10047 (= cell_2_7 1)))
 (or $x10047 (= cell_2_7 2) (= cell_2_7 3) (= cell_2_7 4) (= cell_2_7 5) (= cell_2_7 6) (= cell_2_7 7) (= cell_2_7 8) (= cell_2_7 9))))
(assert
 (let (($x8481 (= cell_3_7 9)))
 (let (($x6361 (= cell_3_7 8)))
 (let (($x3725 (= cell_3_7 7)))
 (let (($x3349 (= cell_3_7 6)))
 (let (($x1132 (= cell_3_7 5)))
 (let (($x3354 (= cell_3_7 4)))
 (let (($x9375 (= cell_3_7 3)))
 (let (($x1045 (= cell_3_7 2)))
 (let (($x763 (= cell_3_7 1)))
 (or $x763 $x1045 $x9375 $x3354 $x1132 $x3349 $x3725 $x6361 $x8481)))))))))))
(assert
 (let (($x4367 (= cell_4_7 9)))
 (let (($x2205 (= cell_4_7 8)))
 (let (($x7284 (= cell_4_7 7)))
 (let (($x80 (= cell_4_7 6)))
 (let (($x7777 (= cell_4_7 5)))
 (let (($x7330 (= cell_4_7 4)))
 (let (($x4866 (= cell_4_7 3)))
 (let (($x8432 (= cell_4_7 2)))
 (let (($x464 (= cell_4_7 1)))
 (or $x464 $x8432 $x4866 $x7330 $x7777 $x80 $x7284 $x2205 $x4367)))))))))))
(assert
 (let (($x1406 (= cell_5_7 1)))
 (or $x1406 (= cell_5_7 2) (= cell_5_7 3) (= cell_5_7 4) (= cell_5_7 5) (= cell_5_7 6) (= cell_5_7 7) (= cell_5_7 8) (= cell_5_7 9))))
(assert
 (let (($x5232 (= cell_6_7 1)))
 (or $x5232 (= cell_6_7 2) (= cell_6_7 3) (= cell_6_7 4) (= cell_6_7 5) (= cell_6_7 6) (= cell_6_7 7) (= cell_6_7 8) (= cell_6_7 9))))
(assert
 (let (($x303 (= cell_7_7 1)))
 (or $x303 (= cell_7_7 2) (= cell_7_7 3) (= cell_7_7 4) (= cell_7_7 5) (= cell_7_7 6) (= cell_7_7 7) (= cell_7_7 8) (= cell_7_7 9))))
(assert
 (let (($x1158 (= cell_8_7 1)))
 (or $x1158 (= cell_8_7 2) (= cell_8_7 3) (= cell_8_7 4) (= cell_8_7 5) (= cell_8_7 6) (= cell_8_7 7) (= cell_8_7 8) (= cell_8_7 9))))
(assert
 (let (($x623 (= cell_9_7 1)))
 (or $x623 (= cell_9_7 2) (= cell_9_7 3) (= cell_9_7 4) (= cell_9_7 5) (= cell_9_7 6) (= cell_9_7 7) (= cell_9_7 8) (= cell_9_7 9))))
(assert
 (let (($x9688 (= cell_1_8 9)))
 (let (($x7801 (= cell_1_8 8)))
 (let (($x3780 (= cell_1_8 7)))
 (let (($x9083 (= cell_1_8 6)))
 (let (($x842 (= cell_1_8 5)))
 (let (($x6041 (= cell_1_8 4)))
 (let (($x5763 (= cell_1_8 3)))
 (let (($x6065 (= cell_1_8 2)))
 (let (($x8747 (= cell_1_8 1)))
 (or $x8747 $x6065 $x5763 $x6041 $x842 $x9083 $x3780 $x7801 $x9688)))))))))))
(assert
 (let (($x7487 (= cell_2_8 9)))
 (let (($x7367 (= cell_2_8 8)))
 (let (($x7477 (= cell_2_8 7)))
 (let (($x9968 (= cell_2_8 6)))
 (let (($x3061 (= cell_2_8 5)))
 (let (($x15 (= cell_2_8 4)))
 (let (($x2688 (= cell_2_8 3)))
 (let (($x3953 (= cell_2_8 2)))
 (let (($x4138 (= cell_2_8 1)))
 (or $x4138 $x3953 $x2688 $x15 $x3061 $x9968 $x7477 $x7367 $x7487)))))))))))
(assert
 (let (($x9842 (= cell_3_8 9)))
 (let (($x5423 (= cell_3_8 8)))
 (let (($x8484 (= cell_3_8 7)))
 (let (($x2006 (= cell_3_8 6)))
 (let (($x6965 (= cell_3_8 5)))
 (let (($x1690 (= cell_3_8 4)))
 (let (($x8506 (= cell_3_8 3)))
 (let (($x7391 (= cell_3_8 2)))
 (let (($x1076 (= cell_3_8 1)))
 (or $x1076 $x7391 $x8506 $x1690 $x6965 $x2006 $x8484 $x5423 $x9842)))))))))))
(assert
 (let (($x1880 (= cell_4_8 1)))
 (or $x1880 (= cell_4_8 2) (= cell_4_8 3) (= cell_4_8 4) (= cell_4_8 5) (= cell_4_8 6) (= cell_4_8 7) (= cell_4_8 8) (= cell_4_8 9))))
(assert
 (let (($x4634 (= cell_5_8 1)))
 (or $x4634 (= cell_5_8 2) (= cell_5_8 3) (= cell_5_8 4) (= cell_5_8 5) (= cell_5_8 6) (= cell_5_8 7) (= cell_5_8 8) (= cell_5_8 9))))
(assert
 (let (($x5308 (= cell_6_8 1)))
 (or $x5308 (= cell_6_8 2) (= cell_6_8 3) (= cell_6_8 4) (= cell_6_8 5) (= cell_6_8 6) (= cell_6_8 7) (= cell_6_8 8) (= cell_6_8 9))))
(assert
 (let (($x1996 (= cell_7_8 1)))
 (or $x1996 (= cell_7_8 2) (= cell_7_8 3) (= cell_7_8 4) (= cell_7_8 5) (= cell_7_8 6) (= cell_7_8 7) (= cell_7_8 8) (= cell_7_8 9))))
(assert
 (let (($x2818 (= cell_8_8 1)))
 (or $x2818 (= cell_8_8 2) (= cell_8_8 3) (= cell_8_8 4) (= cell_8_8 5) (= cell_8_8 6) (= cell_8_8 7) (= cell_8_8 8) (= cell_8_8 9))))
(assert
 (let (($x2872 (= cell_9_8 1)))
 (or $x2872 (= cell_9_8 2) (= cell_9_8 3) (= cell_9_8 4) (= cell_9_8 5) (= cell_9_8 6) (= cell_9_8 7) (= cell_9_8 8) (= cell_9_8 9))))
(assert
 (let (($x7268 (= cell_1_9 1)))
 (or $x7268 (= cell_1_9 2) (= cell_1_9 3) (= cell_1_9 4) (= cell_1_9 5) (= cell_1_9 6) (= cell_1_9 7) (= cell_1_9 8) (= cell_1_9 9))))
(assert
 (let (($x8832 (= cell_2_9 1)))
 (or $x8832 (= cell_2_9 2) (= cell_2_9 3) (= cell_2_9 4) (= cell_2_9 5) (= cell_2_9 6) (= cell_2_9 7) (= cell_2_9 8) (= cell_2_9 9))))
(assert
 (let (($x1361 (= cell_3_9 1)))
 (or $x1361 (= cell_3_9 2) (= cell_3_9 3) (= cell_3_9 4) (= cell_3_9 5) (= cell_3_9 6) (= cell_3_9 7) (= cell_3_9 8) (= cell_3_9 9))))
(assert
 (let (($x230 (= cell_4_9 1)))
 (or $x230 (= cell_4_9 2) (= cell_4_9 3) (= cell_4_9 4) (= cell_4_9 5) (= cell_4_9 6) (= cell_4_9 7) (= cell_4_9 8) (= cell_4_9 9))))
(assert
 (let (($x6478 (= cell_5_9 1)))
 (or $x6478 (= cell_5_9 2) (= cell_5_9 3) (= cell_5_9 4) (= cell_5_9 5) (= cell_5_9 6) (= cell_5_9 7) (= cell_5_9 8) (= cell_5_9 9))))
(assert
 (let (($x6499 (= cell_6_9 1)))
 (or $x6499 (= cell_6_9 2) (= cell_6_9 3) (= cell_6_9 4) (= cell_6_9 5) (= cell_6_9 6) (= cell_6_9 7) (= cell_6_9 8) (= cell_6_9 9))))
(assert
 (let (($x1901 (= cell_7_9 1)))
 (or $x1901 (= cell_7_9 2) (= cell_7_9 3) (= cell_7_9 4) (= cell_7_9 5) (= cell_7_9 6) (= cell_7_9 7) (= cell_7_9 8) (= cell_7_9 9))))
(assert
 (let (($x7254 (= cell_8_9 1)))
 (or $x7254 (= cell_8_9 2) (= cell_8_9 3) (= cell_8_9 4) (= cell_8_9 5) (= cell_8_9 6) (= cell_8_9 7) (= cell_8_9 8) (= cell_8_9 9))))
(assert
 (or (= cell_9_9 1) (= cell_9_9 2) (= cell_9_9 3) (= cell_9_9 4) (= cell_9_9 5) (= cell_9_9 6) (= cell_9_9 7) (= cell_9_9 8) (= cell_9_9 9)))
(assert
 (and (distinct cell_1_1 cell_1_2 cell_1_3 cell_1_4 cell_1_5 cell_1_6 cell_1_7 cell_1_8 cell_1_9) true))
(assert
 (and (distinct cell_2_1 cell_2_2 cell_2_3 cell_2_4 cell_2_5 cell_2_6 cell_2_7 cell_2_8 cell_2_9) true))
(assert
 (and (distinct cell_3_1 cell_3_2 cell_3_3 cell_3_4 cell_3_5 cell_3_6 cell_3_7 cell_3_8 cell_3_9) true))
(assert
 (and (distinct cell_4_1 cell_4_2 cell_4_3 cell_4_4 cell_4_5 cell_4_6 cell_4_7 cell_4_8 cell_4_9) true))
(assert
 (and (distinct cell_5_1 cell_5_2 cell_5_3 cell_5_4 cell_5_5 cell_5_6 cell_5_7 cell_5_8 cell_5_9) true))
(assert
 (and (distinct cell_6_1 cell_6_2 cell_6_3 cell_6_4 cell_6_5 cell_6_6 cell_6_7 cell_6_8 cell_6_9) true))
(assert
 (and (distinct cell_7_1 cell_7_2 cell_7_3 cell_7_4 cell_7_5 cell_7_6 cell_7_7 cell_7_8 cell_7_9) true))
(assert
 (and (distinct cell_8_1 cell_8_2 cell_8_3 cell_8_4 cell_8_5 cell_8_6 cell_8_7 cell_8_8 cell_8_9) true))
(assert
 (and (distinct cell_9_1 cell_9_2 cell_9_3 cell_9_4 cell_9_5 cell_9_6 cell_9_7 cell_9_8 cell_9_9) true))
(assert
 (and (distinct cell_1_1 cell_2_1 cell_3_1 cell_4_1 cell_5_1 cell_6_1 cell_7_1 cell_8_1 cell_9_1) true))
(assert
 (and (distinct cell_1_2 cell_2_2 cell_3_2 cell_4_2 cell_5_2 cell_6_2 cell_7_2 cell_8_2 cell_9_2) true))
(assert
 (and (distinct cell_1_3 cell_2_3 cell_3_3 cell_4_3 cell_5_3 cell_6_3 cell_7_3 cell_8_3 cell_9_3) true))
(assert
 (and (distinct cell_1_4 cell_2_4 cell_3_4 cell_4_4 cell_5_4 cell_6_4 cell_7_4 cell_8_4 cell_9_4) true))
(assert
 (and (distinct cell_1_5 cell_2_5 cell_3_5 cell_4_5 cell_5_5 cell_6_5 cell_7_5 cell_8_5 cell_9_5) true))
(assert
 (and (distinct cell_1_6 cell_2_6 cell_3_6 cell_4_6 cell_5_6 cell_6_6 cell_7_6 cell_8_6 cell_9_6) true))
(assert
 (and (distinct cell_1_7 cell_2_7 cell_3_7 cell_4_7 cell_5_7 cell_6_7 cell_7_7 cell_8_7 cell_9_7) true))
(assert
 (and (distinct cell_1_8 cell_2_8 cell_3_8 cell_4_8 cell_5_8 cell_6_8 cell_7_8 cell_8_8 cell_9_8) true))
(assert
 (and (distinct cell_1_9 cell_2_9 cell_3_9 cell_4_9 cell_5_9 cell_6_9 cell_7_9 cell_8_9 cell_9_9) true))
(assert
 (and (distinct cell_1_1 cell_1_2 cell_1_3 cell_2_1 cell_2_2 cell_2_3 cell_3_1 cell_3_2 cell_3_3) true))
(assert
 (and (distinct cell_1_4 cell_1_5 cell_1_6 cell_2_4 cell_2_5 cell_2_6 cell_3_4 cell_3_5 cell_3_6) true))
(assert
 (and (distinct cell_1_7 cell_1_8 cell_1_9 cell_2_7 cell_2_8 cell_2_9 cell_3_7 cell_3_8 cell_3_9) true))
(assert
 (and (distinct cell_4_1 cell_4_2 cell_4_3 cell_5_1 cell_5_2 cell_5_3 cell_6_1 cell_6_2 cell_6_3) true))
(assert
 (and (distinct cell_4_4 cell_4_5 cell_4_6 cell_5_4 cell_5_5 cell_5_6 cell_6_4 cell_6_5 cell_6_6) true))
(assert
 (and (distinct cell_4_7 cell_4_8 cell_4_9 cell_5_7 cell_5_8 cell_5_9 cell_6_7 cell_6_8 cell_6_9) true))
(assert
 (and (distinct cell_7_1 cell_7_2 cell_7_3 cell_8_1 cell_8_2 cell_8_3 cell_9_1 cell_9_2 cell_9_3) true))
(assert
 (and (distinct cell_7_4 cell_7_5 cell_7_6 cell_8_4 cell_8_5 cell_8_6 cell_9_4 cell_9_5 cell_9_6) true))
(assert
 (and (distinct cell_7_7 cell_7_8 cell_7_9 cell_8_7 cell_8_8 cell_8_9 cell_9_7 cell_9_8 cell_9_9) true))
(assert
 (let (($x4524 (and (distinct cell_5_9 cell_6_8 cell_7_7 cell_8_6) true)))
 (let (($x9417 (and (distinct cell_2_9 cell_3_8 cell_4_7 cell_5_6 cell_6_5 cell_7_4 cell_8_3 cell_9_2) true)))
 (let (($x9840 (and (distinct cell_1_8 cell_2_7 cell_3_6 cell_4_5 cell_5_4 cell_6_3 cell_7_2 cell_8_1) true)))
 (let (($x4838 (and (distinct cell_1_5 cell_2_4 cell_3_3 cell_4_2) true)))
 (let (($x10136 (and (distinct cell_5_1 cell_6_2 cell_7_3 cell_8_4) true)))
 (let (($x10130 (and (distinct cell_2_1 cell_3_2 cell_4_3 cell_5_4 cell_6_5 cell_7_6 cell_8_7 cell_9_8) true)))
 (let (($x4712 (and (distinct cell_1_2 cell_2_3 cell_3_4 cell_4_5 cell_5_6 cell_6_7 cell_7_8 cell_8_9) true)))
 (let (($x5102 (and (distinct cell_1_5 cell_2_6 cell_3_7 cell_4_8) true)))
 (and $x5102 $x4712 $x10130 $x10136 $x4838 $x9840 $x9417 $x4524))))))))))
(assert
 (= cell_8_9 1))
(check-sat)
